c t pmc
c file mc2022_track3_011.cnf
p cnf 100 545
c p show 5 6 9 18 26 27 28 30 32 33 37 38 39 44 46 47 50 51 53 54 55 58 59 60 62 65 66 67 69 72 73 74 75 77 78 79 80 81 82 87 90 93 96 97 0
-1 0
-51 0
34 0
-84 0
-46 0
96 0
71 0
-6 0
-3 -53 -28 -78 0
53 3 31 81 0
-35 85 -2 52 0
52 35 2 85 0
-52 -8 -2 -58 0
8 -58 2 -52 0
-8 58 -2 52 0
52 8 2 58 0
-52 -86 -2 -36 0
-7 -57 -62 -12 0
-7 -39 -57 -89 0
-89 39 -57 7 0
-39 89 57 -7 0
7 39 57 89 0
-7 -28 -57 -78 0
28 -78 -57 7 0
-28 78 57 -7 0
7 28 57 78 0
-7 -57 -44 -94 0
-94 44 -57 7 0
94 57 -44 -7 0
7 44 57 94 0
-7 -57 -100 -50 0
-70 20 5 -55 0
5 -55 42 -92 0
-4 -54 -88 -38 0
4 -54 -88 38 0
-4 -54 -16 -66 0
-54 4 16 -66 0
-86 36 2 -52 0
86 -36 -2 52 0
52 86 2 36 0
-52 -3 -2 -53 0
3 -53 2 -52 0
-3 53 -2 52 0
52 3 2 53 0
-52 -17 -2 -67 0
17 -67 2 -52 0
-17 67 -2 52 0
52 17 2 67 0
-52 -2 -100 -50 0
-52 -83 -2 -33 0
-83 33 2 -52 0
83 -33 -2 52 0
52 83 2 33 0
53 -3 -27 77 0
3 53 27 77 0
-3 -53 -31 -81 0
3 -53 31 -81 0
53 -3 -31 81 0
3 -53 28 -78 0
53 -3 -28 78 0
3 53 28 78 0
-52 -35 -2 -85 0
35 -85 2 -52 0
97 80 47 30 0
-38 -29 -88 -79 0
-79 -88 29 38 0
79 -29 88 -38 0
88 38 29 79 0
-35 -85 -29 -79 0
-79 35 29 -85 0
79 -35 -29 85 0
35 85 29 79 0
-26 -76 -82 -32 0
-75 -25 -100 -50 0
-75 -25 -87 -37 0
-25 75 98 -48 0
-25 -45 -75 -95 0
-95 25 45 -75 0
95 -45 -25 75 0
25 45 75 95 0
27 -77 49 -99 0
-27 77 -49 99 0
24 -74 5 -55 0
31 -81 5 -55 0
99 27 49 77 0
-80 -30 -26 -76 0
30 -80 26 -76 0
-30 80 -26 76 0
80 30 26 76 0
-26 -76 -44 -94 0
-94 44 26 -76 0
94 -26 -44 76 0
44 94 26 76 0
76 -26 98 -48 0
-4 54 88 -38 0
-78 28 -21 -56 0
-67 17 -56 -21 0
-76 26 -21 -56 0
-95 45 5 -55 0
-76 26 5 -55 0
79 -29 98 -48 0
-86 -36 -29 -79 0
-79 -86 29 36 0
79 86 -29 -36 0
86 36 29 79 0
-39 -89 -28 -78 0
-78 28 39 -89 0
78 -39 -28 89 0
28 78 39 89 0
45 -95 27 -77 0
95 -27 -45 77 0
77 45 27 95 0
-99 -27 -49 -77 0
81 -39 -31 89 0
31 81 39 89 0
-47 -97 -31 -81 0
-81 31 47 -97 0
81 -47 -31 97 0
97 31 47 81 0
-97 -47 -80 -30 0
30 -80 47 -97 0
-30 -47 80 97 0
63 -13 90 -40 0
-13 -63 -80 -30 0
-63 13 -80 30 0
63 -13 80 -30 0
13 63 80 30 0
-39 -89 -13 -63 0
-63 13 39 -89 0
63 -39 -13 89 0
53 -3 80 -30 0
3 53 80 30 0
-3 -53 -16 -66 0
3 -53 16 -66 0
14 64 88 38 0
-14 64 88 -38 0
14 -64 -88 38 0
-14 -64 -88 -38 0
13 63 39 89 0
63 -13 69 -19 0
-65 -15 -13 -63 0
-63 -65 13 15 0
-14 -64 -20 -70 0
14 -64 20 -70 0
-14 64 -20 70 0
14 64 20 70 0
-33 83 61 -11 0
-14 -64 -65 -15 0
14 -64 -65 15 0
-14 64 65 -15 0
14 64 65 15 0
14 64 43 93 0
30 -80 10 -60 0
11 -61 -60 10 0
16 -66 10 -60 0
11 -61 -92 42 0
33 -83 -61 11 0
-83 -33 -61 -11 0
77 -27 98 -48 0
-27 -77 -45 -95 0
-73 23 10 -60 0
-41 -8 -91 -58 0
41 8 -91 -58 0
-41 91 -8 58 0
41 91 8 58 0
-99 -8 -49 -58 0
8 -58 49 -99 0
-8 58 -49 99 0
99 8 49 58 0
58 -8 90 -40 0
-83 -33 -8 -58 0
33 8 -83 -58 0
-33 83 -8 58 0
8 58 83 33 0
-7 -57 -87 -37 0
94 -44 59 -9 0
-30 80 59 -9 0
58 -8 59 -9 0
-8 -58 -100 -50 0
-14 -13 63 64 0
14 64 13 63 0
-3 53 -22 72 0
3 53 22 72 0
-3 -53 -80 -30 0
3 -53 -80 30 0
53 -3 -16 66 0
53 3 16 66 0
-3 -53 -27 -77 0
3 -53 27 -77 0
4 54 88 38 0
-4 -54 -29 -79 0
4 -54 29 -79 0
-4 54 -29 79 0
4 54 29 79 0
-4 -54 -20 -70 0
-54 4 20 -70 0
-4 54 -20 70 0
4 54 20 70 0
-4 -54 -18 -68 0
4 -54 18 -68 0
-4 54 -18 68 0
4 54 18 68 0
-4 -54 -47 -97 0
-54 4 47 -97 0
-4 54 -47 97 0
4 54 47 97 0
-99 -61 -49 -11 0
-63 14 13 -64 0
-14 -64 -13 -63 0
83 33 61 11 0
45 -95 -60 10 0
-16 -66 -45 -95 0
-66 45 16 -95 0
-61 11 49 -99 0
61 -11 -49 99 0
99 61 49 11 0
-11 -61 -82 -32 0
-31 -81 -61 -11 0
-81 31 -61 11 0
81 -31 61 -11 0
31 81 61 11 0
63 65 -13 -15 0
65 15 13 63 0
-86 -36 -13 -63 0
-63 -86 13 36 0
63 86 -13 -36 0
86 36 13 63 0
-49 -99 -62 -12 0
-97 -47 -62 -12 0
-77 -27 -62 -12 0
-20 -12 -62 -70 0
-4 54 -16 66 0
4 54 16 66 0
-4 -54 -41 -91 0
4 -54 41 -91 0
-4 54 -41 91 0
3 -53 22 -72 0
-64 14 -78 28 0
-64 -14 -78 -28 0
65 15 27 77 0
65 -15 -27 77 0
-65 15 27 -77 0
-65 -15 -27 -77 0
65 15 16 66 0
66 65 -16 -15 0
-66 -65 16 15 0
-65 -15 -16 -66 0
65 15 80 30 0
-30 65 80 -15 0
30 -65 -80 15 0
-65 -15 -80 -30 0
65 15 22 72 0
-18 68 69 -19 0
-18 -68 -100 -50 0
-65 -15 -35 -85 0
16 66 20 70 0
66 -16 -20 70 0
-66 16 20 -70 0
-16 -66 -20 -70 0
45 95 16 66 0
66 -16 -45 95 0
99 16 49 66 0
66 -16 -49 99 0
-66 16 49 -99 0
-99 -16 -49 -66 0
-14 64 -43 93 0
14 -64 43 -93 0
-14 -64 -43 -93 0
14 64 28 78 0
-14 64 -28 78 0
-17 -67 -74 -24 0
41 91 17 67 0
67 -17 -41 91 0
-67 41 17 -91 0
-17 -67 -41 -91 0
86 36 17 67 0
67 86 -17 -36 0
-67 -86 17 36 0
-86 -36 -17 -67 0
97 17 47 67 0
67 -17 -47 97 0
-67 17 47 -97 0
-17 -67 -47 -97 0
33 -83 45 -95 0
-83 -33 -45 -95 0
-3 -53 -22 -72 0
4 54 41 91 0
38 83 88 33 0
-33 83 88 -38 0
33 -83 -88 38 0
18 68 31 81 0
81 -18 -31 68 0
-81 18 31 -68 0
-18 -68 -31 -81 0
35 85 18 68 0
-35 85 -18 68 0
35 -85 18 -68 0
-35 -85 -18 -68 0
22 72 18 68 0
-22 72 -18 68 0
22 -72 18 -68 0
17 67 29 79 0
67 -17 -29 79 0
-67 17 29 -79 0
-17 -67 -29 -79 0
74 24 17 67 0
67 -17 74 -24 0
-67 17 -74 24 0
99 22 49 72 0
-22 -72 -18 -68 0
-18 68 90 -40 0
78 -28 69 -19 0
70 -20 -19 69 0
-33 83 69 -19 0
86 36 20 70 0
86 -36 -20 70 0
-23 73 -27 77 0
23 -73 27 -77 0
-23 -73 -27 -77 0
83 33 74 24 0
-24 83 74 -33 0
33 -83 -74 24 0
-83 -33 -74 -24 0
99 74 49 24 0
-24 74 -49 99 0
-86 36 20 -70 0
-86 -36 -20 -70 0
22 72 28 78 0
78 -22 -28 72 0
-78 22 28 -72 0
-22 -72 -28 -78 0
22 72 35 85 0
-22 72 -35 85 0
22 -72 35 -85 0
-22 -72 -35 -85 0
73 -23 74 -24 0
-73 23 -74 24 0
-23 -73 -74 -24 0
43 93 23 73 0
73 -43 -23 93 0
-73 43 23 -93 0
-43 -23 -93 -73 0
77 23 27 73 0
65 -15 -22 72 0
-65 15 22 -72 0
-15 -65 -22 -72 0
15 65 35 85 0
65 -15 -35 85 0
-65 15 35 -85 0
24 -74 49 -99 0
-99 -74 -49 -24 0
97 74 47 24 0
-24 -47 74 97 0
24 -74 47 -97 0
-47 -97 -74 -24 0
25 94 44 75 0
94 -25 -44 75 0
44 -94 25 -75 0
-25 -44 -75 -94 0
-22 72 -49 99 0
22 -72 49 -99 0
-99 -22 -49 -72 0
22 72 86 36 0
-22 72 86 -36 0
22 -72 -86 36 0
-22 -72 -86 -36 0
74 24 23 73 0
93 43 44 94 0
-89 44 39 -94 0
-39 -89 -44 -94 0
-41 93 -43 91 0
41 93 43 91 0
-89 39 42 -92 0
-33 83 -45 95 0
83 33 45 95 0
29 79 26 76 0
79 -29 -26 76 0
-38 -88 -82 -32 0
-81 31 42 -92 0
-79 29 26 -76 0
-39 -89 -31 -81 0
-81 31 39 -89 0
-29 -79 -26 -76 0
-38 -88 -87 -37 0
93 43 88 38 0
-43 93 88 -38 0
43 -88 -93 38 0
-38 -43 -88 -93 0
41 91 39 89 0
89 -41 -39 91 0
-89 41 39 -91 0
-41 -39 -91 -89 0
44 94 39 89 0
89 -39 -44 94 0
-100 -87 -37 -50 0
-45 -95 -44 -94 0
-95 45 44 -94 0
95 -45 -44 94 0
45 95 44 94 0
-43 -44 -93 -94 0
-94 43 44 -93 0
93 -43 -44 94 0
35 -85 41 -91 0
-35 -41 91 85 0
35 41 91 85 0
-35 -85 -41 -91 0
36 86 35 85 0
86 -36 -35 85 0
36 35 -86 -85 0
-86 -36 -35 -85 0
-38 -83 -88 -33 0
-28 -78 21 -56 0
-17 -67 21 -56 0
-26 -76 21 -56 0
41 21 -91 0
-41 -21 -91 0
25 21 -75 0
-25 -75 -21 0
-97 47 21 0
-97 -47 -21 0
43 21 -93 0
-43 -21 -93 0
-76 26 32 0
58 -8 100 0
-29 -79 -98 0
76 -26 82 0
78 28 56 0
90 -40 87 0
-58 8 50 0
-70 20 12 0
70 -20 62 0
-23 -73 -10 0
95 45 60 0
-95 -45 -10 0
11 -61 32 0
-11 61 82 0
-39 -89 -42 0
77 27 48 0
-77 -27 -98 0
-63 -13 -90 0
25 -75 50 0
-30 -80 -59 0
-28 -78 -69 0
58 8 9 0
8 58 40 0
-58 -8 -59 0
-9 62 59 0
68 18 40 0
-12 -59 -62 0
25 75 48 0
-68 -18 -90 0
28 78 19 0
30 80 9 0
-87 -37 -90 0
-25 75 100 0
7 -57 12 0
63 13 19 0
-7 57 62 0
-13 -63 -69 0
25 -75 37 0
-25 75 87 0
-83 -33 -69 0
25 56 75 0
-25 -75 -98 0
83 33 19 0
-70 -20 -69 0
45 95 55 0
-47 97 62 0
-27 77 62 0
-16 -66 -10 0
81 31 92 0
-7 57 87 0
74 24 55 0
7 -57 37 0
11 61 60 0
-8 -58 -90 0
13 63 40 0
-38 88 87 0
17 67 56 0
-31 -81 -42 0
76 26 56 0
-80 -30 -10 0
2 -52 50 0
-2 52 100 0
-68 18 50 0
68 -18 100 0
70 20 55 0
80 30 60 0
23 73 60 0
38 -88 37 0
-18 -68 -69 0
-20 -70 -5 0
-45 -95 -5 0
16 66 60 0
44 94 9 0
20 70 19 0
-11 -61 -10 0
-31 -81 -5 0
18 68 19 0
76 26 48 0
31 81 55 0
-74 -24 -5 0
47 -97 12 0
-88 38 32 0
88 -38 82 0
61 11 92 0
29 79 48 0
-76 -26 -98 0
-40 82 90 0
26 76 55 0
39 89 92 0
-61 -11 -42 0
-57 7 50 0
-26 -76 -5 0
21 -56 -59 0
57 -7 100 0
27 -77 12 0
49 -99 12 0
-49 99 62 0
-44 -94 -59 0
-82 -32 -90 0
32 82 0
37 50 0
60 19 0
-10 -69 0
-10 60 0
56 9 0
-75 -56 0
37 87 0
-5 -42 0
-5 55 0
55 92 0
50 100 0
-69 19 0
9 92 0
-59 -42 0
-59 9 0
-90 40 0
87 100 0
-91 -93 0
92 48 0
92 -42 0
48 -98 0
62 12 0
-98 -42 0
